
Gurobi 9.1.2 (win64, Java) logging started Mon Nov 15 13:08:39 2021

Academic license - for non-commercial use only - expires 2022-10-30
Gurobi Optimizer version 9.1.2 build v9.1.2rc0 (win64)
Thread count: 6 physical cores, 12 logical processors, using up to 12 threads
Optimize a model with 110 rows, 1000 columns and 2000 nonzeros
Model fingerprint: 0xe56d7684
Variable types: 0 continuous, 1000 integer (1000 binary)
Coefficient statistics:
  Matrix range     [1e+00, 1e+03]
  Objective range  [4e+00, 1e+03]
  Bounds range     [1e+00, 1e+00]
  RHS range        [1e+00, 3e+03]
Found heuristic solution: objective 25696.000000
Presolve time: 0.02s
Presolved: 110 rows, 1000 columns, 2000 nonzeros
Variable types: 0 continuous, 1000 integer (1000 binary)
Presolved: 110 rows, 1000 columns, 2000 nonzeros


Root relaxation: objective 3.819268e+04, 184 iterations, 0.01 seconds

    Nodes    |    Current Node    |     Objective Bounds      |     Work
 Expl Unexpl |  Obj  Depth IntInf | Incumbent    BestBd   Gap | It/Node Time

     0     0 38192.6838    0    9 25696.0000 38192.6838  48.6%     -    0s
H    0     0                    37000.000000 38192.6838  3.22%     -    0s
H    0     0                    37883.000000 38192.6838  0.82%     -    1s
     0     0 38138.8262    0   17 37883.0000 38138.8262  0.68%     -    1s
H    0     0                    38043.000000 38138.8262  0.25%     -    2s
     0     0 38127.8812    0   20 38043.0000 38127.8812  0.22%     -    2s
     0     0 38127.8812    0   11 38043.0000 38127.8812  0.22%     -    2s
     0     0 38127.8812    0   11 38043.0000 38127.8812  0.22%     -    2s
     0     0 38126.4000    0   21 38043.0000 38126.4000  0.22%     -    3s
     0     0 38126.4000    0   26 38043.0000 38126.4000  0.22%     -    3s
     0     0 38126.4000    0   25 38043.0000 38126.4000  0.22%     -    3s
     0     0 38126.4000    0   15 38043.0000 38126.4000  0.22%     -    3s
     0     2 38126.4000    0   13 38043.0000 38126.4000  0.22%     -    3s
H   35    41                    38073.000000 38126.4000  0.14%  16.3    4s
    82    89 38126.0000   14   17 38073.0000 38126.3267  0.14%   9.2    5s
H 2439  1817                    38089.000000 38126.0000  0.10%   7.7    9s
  2441  1819 38112.0366   21   19 38089.0000 38126.0000  0.10%   7.7   10s
  6198  4771 38098.4265  136   14 38089.0000 38126.0000  0.10%   6.8   15s
 17528 12406 38126.0000  109   14 38089.0000 38126.0000  0.10%   5.4   20s
 24805 17016     cutoff  181      38089.0000 38126.0000  0.10%   5.0   25s
 35432 20297 38126.0000   74   14 38089.0000 38126.0000  0.10%   4.8   30s
 40086 23732 38126.0000  182   13 38089.0000 38126.0000  0.10%   5.0   35s
 45109 23799 38126.0000  194    9 38089.0000 38126.0000  0.10%   4.8   40s
 54268 23535 38126.0000  119   11 38089.0000 38126.0000  0.10%   4.7   45s
 54740 23685 38126.0000   63   14 38089.0000 38126.0000  0.10%   4.7   51s
 66003 28090 38122.2051  156   12 38089.0000 38126.0000  0.10%   4.6   55s
 78489 28418 38126.0000  185    8 38089.0000 38126.0000  0.10%   4.4   60s
 85579 27622 38126.0000  162    6 38089.0000 38126.0000  0.10%   4.4   66s
 88793 27453 38124.0668  181   16 38089.0000 38126.0000  0.10%   4.4   70s
 95372 26771 38105.0000  181    3 38089.0000 38126.0000  0.10%   4.5   76s
 99856 26088 38126.0000  184    4 38089.0000 38126.0000  0.10%   4.5   80s
 104006 24958 38108.9422  181    5 38089.0000 38126.0000  0.10%   4.5   87s
 104460 24946     cutoff  182      38089.0000 38126.0000  0.10%   4.5   90s
 109899 23390 38126.0000  184    4 38089.0000 38126.0000  0.10%   4.5   96s
*112970  3508             190    38126.000000 38126.0000  0.00%   4.5   99s

Cutting planes:
  Gomory: 4
  Cover: 367
  Inf proof: 5
  RLT: 1

Explored 113425 nodes (515435 simplex iterations) in 99.24 seconds
Thread count was 12 (of 12 available processors)

Solution count 7: 38126 38089 38073 ... 25696

Optimal solution found (tolerance 1.00e-12)
Best objective 3.812600000000e+04, best bound 3.812600000000e+04, gap 0.0000%
